!PBE0 RIJK D3BJ
!def2-TZVPPD def2/JK
!PAL8

* xyzfile 0 1 e34.xyz
